M+/Instances/S2-5-M+/S2-10-5-3-l-M+.txt
     200       5    0.10
       2       2       2       3       1      10       9      11      16       1       3
       2       2       2       3       3       6      10       3       7      16       2
       2       3       2       3       1       5      11       9       7      10       2
       1       2       2       1       2       7       5      14       3       7       2
       3       1       3       3       2      14       4      11       4      14       3
       3       2       2       2       2       2       5       7       7       7       2
       2       1       1       3       2      14      16       1       5      11       3
       1       2       2       2       2      11       7       3       5       7       2
       2       1       1       3       3      14       0       9      12       0       2
       1       1       2       3       1       2       0       0       7      11       3
       1       1       2       3       1       5       1       9      10       3       2
       1       2       1       2       1      16      10      15       5      11       3
       3       1       3       2       1       2       0       7      16      13       3
       1       3       1       3       2       5      14       5       0      15       3
       2       1       2       2       3      16      16      13       1       5       2
       3       1       2       2       1       8      12       1      14       3       2
       3       1       2       3       1       2       1       8      10      14       3
       2       3       1       2       3       8       6       0      12      14       2
       3       1       1       2       3       7       8      10       8       5       3
       2       3       1       3       2       9       6      13       7      15       3
       1       1       2       1       3       1       9      12      16      13       2
       3       3       2       2       2       7      16       0       6       8       3
       2       1       2       3       3       2      16       5       7       3       2
       2       3       2       2       1       5       5      16       7      14       3
       1       1       2       2       3       3       2      12       2      12       3
       2       3       3       1       1      10      12      12       3       6       3
       1       1       1       1       1       2       1      10      15       1       2
       3       1       1       1       2      10       2      13       8       2       2
       1       2       3       3       3       2       2       9      15      11       3
       3       1       2       3       2       9      11       9      13      15       3
       1       1       3       1       2       0       1       9       0       3       3
       2       1       1       1       3      12       5       4      12       8       3
       2       3       2       1       2       7      12       3       8       7       2
       1       1       1       3       3       0      13      14      10       5       3
       2       1       1       2       3       8       9       0       5       6       2
       2       2       3       2       2      11       4       6       9      14       3
       3       2       3       3       2      16       1      15       3      16       3
       3       2       1       2       1      13       7       3      15       9       2
       2       1       2       3       1      15      12       5       3       2       2
       1       3       2       1       1      10      11       5       3      10       2
       3       2       3       3       1      12      16       1       8      14       3
       2       1       2       3       2       8      12       0      12       7       3
       3       3       1       2       1      15      15       1       3       2       3
       2       3       3       3       1       5       1       2      15       3       3
       3       3       2       3       2       5      11       9       8      12       2
       2       1       1       3       3       0       6       6       1       3       2
       2       3       2       3       2       0       0      10       4       2       2
       1       2       3       2       1       6       5       3       9       0       2
       2       1       1       1       2       0       4       9       2       2       2
       2       3       2       3       2       6       0       0       6      11       3
       3       1       1       3       1       4       5      13      16      10       3
       1       3       1       1       3      15       6       9      16      14       2
       1       2       3       1       2       1       3       6       2      11       3
       2       1       3       1       2      16       4      12       7      14       2
       2       1       3       2       1      13       3      13       2      13       2
       1       3       3       3       2       0       3       2       6      10       2
       2       2       2       1       1       5       2      10       3       7       3
       1       2       3       1       3       1       7      13      12      13       3
       2       1       3       1       2       4      13      11       8      15       3
       1       3       2       3       1       5       8       7       2      12       3
       1       1       2       1       1      13      14      16       5       4       2
       2       2       1       1       1      10      10       9      12       2       2
       1       1       1       2       2       4       7       7      16      15       2
       1       1       3       1       3       8       2       5       0      15       3
       1       2       3       2       3       6      11      11       4       2       2
       1       3       1       1       2       4       2       6      16       4       2
       3       3       3       1       2       7      12       5      14      16       3
       3       2       2       3       3       2      13      11       7       7       3
       2       1       1       3       3      10       2       4       8       9       2
       2       3       1       3       3      15      16       0      11       4       2
       2       1       3       3       2      10       3      11      13      16       3
       3       3       3       1       1      13       6      11       8       0       3
       3       2       2       3       1      13       6       6      11      15       3
       1       3       2       2       3      14       3       9      10       8       2
       1       3       2       2       3      10       5       8      15      12       3
       1       3       2       2       2       8      14       0      15       4       2
       3       3       1       2       3      10       3       9       6      11       2
       1       2       1       3       2      15      16      16       1       1       2
       2       1       2       2       3       6      14      15       3      16       3
       2       3       1       1       2       5       2       6       9      12       2
       3       3       1       3       2       4       4      14       1      16       3
       3       3       3       2       1      16      12       2      14       2       2
       1       3       1       3       2      12       0      10       0      10       3
       1       3       1       1       2      15       0       1      11       1       2
       1       2       1       3       3       0       6       2       6       1       2
       3       3       2       3       3       6      14       2       1       5       2
       2       2       3       3       1       8       6      14       2      13       3
       2       3       1       3       3      10       1       6      14      11       3
       3       2       2       3       3       0      16      11      10      11       3
       3       1       3       2       3      16      11       7       5      12       3
       1       3       3       2       3       2      10      16       2       4       2
       3       2       1       1       1       8      11       3       0       3       3
       3       2       1       2       3       2      11       2       4       8       3
       1       1       3       3       2       7       9      14       4      14       2
       3       3       3       1       3      15       8       5       4       1       2
       2       2       1       3       1       2       7      16      11      15       3
       1       2       2       3       3      15       4      13       2       0       2
       2       1       3       3       3      10       8       5      13       0       3
       2       2       1       2       2       1      12      13       2       6       3
       3       2       3       2       3      16       1      10      15       4       3
       3       1       2       3       3      14       7      15       0       4       3
       3       2       2       1       1       0       3      16      12      15       2
       2       2       3       3       1      13      11       7       2       6       3
       3       3       1       1       1       4       8      13       0      10       3
       3       3       3       1       3      13       4      16       3      12       2
       3       3       1       3       3      15      11       2      15       7       2
       2       1       1       2       2      11       3       1      16      10       2
       3       3       1       2       2      16       0      14       8      15       3
       1       1       3       3       2       1       7       4       0       5       3
       1       2       2       1       1       0      12       1       1       7       2
       2       1       3       3       3       4       3       0       6      14       3
       1       2       3       3       2       4       0       4      12       2       3
       2       3       3       3       1      15       1      16      16       5       2
       3       2       1       2       1       8       6       5       0       3       2
       3       1       1       2       3      10       8       8       4       7       3
       1       2       3       2       2       5      16       4       0       0       3
       1       3       2       3       3       9      16       7       3      10       3
       2       3       1       2       1      10       6       4       3      15       3
       1       2       2       3       2      14       4      10       1      12       3
       2       1       1       3       1      15      13       5       5      14       3
       1       3       3       3       2       5       6      10       8      12       2
       1       1       1       1       3       0       1       6       9      13       2
       1       3       3       3       3      15       6      15       9      10       2
       2       2       1       2       2      12      12       9       2      11       2
       1       3       3       1       3       3      13       1       7       5       3
       3       1       1       3       2      11      15       1       5       7       3
       1       2       1       2       2       1      11       2      15      12       3
       2       1       1       2       3       8       5       3       0      10       2
       1       3       1       3       2       3      13       0       9      11       2
       2       3       1       1       1      16       0      15       5      15       3
       2       3       2       3       2       1       9       3       6      15       2
       2       1       3       3       1       6       1       9       9       3       2
       3       2       3       3       3      15       5      14      14       6       3
       3       1       3       2       3       1       5       8      15      16       2
       3       1       3       3       3      15       0       3       5      16       2
       2       2       3       1       1       8      12       8      11       5       2
       3       3       3       2       3      12      11       2      13       8       3
       2       1       3       1       1       0       9       7      10      12       3
       3       2       2       1       2       9       0       8      11      15       2
       1       1       1       2       1      10       5       8       8       8       3
       1       1       1       1       2       3       8       4      16       5       2
       3       1       1       2       1      10      13      15      14       4       3
       3       2       2       2       3       7       5      15      11      11       2
       2       2       1       1       2      15       9       0       7       4       3
       1       1       3       2       2       8       8      12       1       1       2
       2       3       1       1       1      12       9      11       9      13       3
       3       2       1       1       1      11       9       0       0       0       2
       1       2       2       1       2      15       5       7       3      10       2
       1       1       3       2       3       4      13      14      13       5       2
       3       1       1       3       3      13       8       2       7      13       3
       2       2       1       1       2      11      11       7       5      15       3
       2       1       2       3       2       9      10      15       3      13       3
       2       1       1       2       3       3       6      12      15       1       3
       1       2       3       1       1       9      11       0       2      11       2
       2       2       2       1       3      10      13      11       1       7       2
       3       1       2       2       1      13      10       1       0       1       3
       1       2       2       1       2      15      15      11       5       0       2
       3       3       2       2       3       8       6       6       6      15       3
       1       1       3       3       3       3      16       3       3       2       3
       1       2       2       3       3      12       9       9       2       4       2
       2       2       1       2       2      15       6       6       6      15       3
       1       3       2       3       1       5      12      14      12      11       3
       2       3       3       1       3      14       3       1       8       5       2
       2       2       3       2       3      12      15       6      15       9       2
       2       3       1       1       2      14       0       9      14      16       2
       3       2       1       2       2       1      11       5      16      11       3
       1       3       1       2       2      16       7      13      10      16       3
       2       2       2       1       1       5      15      14      13       3       3
       2       2       2       1       2      15       8       6       6      13       2
       3       3       2       3       3       6       2       6       0      16       2
       2       2       1       2       3       3       0       9      16       0       3
       2       3       2       2       2       8       4      11       2       3       2
       2       1       2       3       1      15      16       4       1       7       2
       2       1       3       1       1       8       6       2       4       8       2
       2       2       3       3       3      15       7      15      15       4       2
       2       3       1       2       2      14       0      13       1       1       2
       3       1       2       1       3      10       3       8       7       6       2
       1       3       3       1       3      11      15       0       1      10       3
       2       3       3       2       1       8      10       2       2      13       3
       3       1       2       1       1       1      10      15      12       8       2
       2       3       3       2       2       0       8       3      10      14       2
       1       2       2       3       2       8       6       0       6       9       3
       3       1       2       3       2      14      15       0       2      11       3
       2       2       2       2       2      16      11       4       3       9       3
       1       3       1       1       1      12       0       2      15       1       3
       1       1       2       3       2      13      13       5       1       7       3
       2       1       3       3       2       1       3      16      13       7       2
       1       1       3       2       1       0       6       5       3      15       3
       1       1       2       3       1       6       6      12       2       2       3
       3       1       1       3       3       2      12       1      12      11       3
       1       3       2       3       1      14      15       3       6      12       2
       1       2       1       1       2       4       9       8       8       3       2
       2       3       2       2       2      13       1       2       8       5       3
       1       3       2       2       2       1       5       2      10      10       3
       2       1       3       3       2       1      11       3      11      15       2
       3       2       3       1       2       7      13      13       4       7       2
       2       2       1       2       1      10      12       5      10       1       3
       2       3       3       2       2      13      16       0       2       8       3
       1       1       2       2       1       5      13       8       5       2       2
       1       3       3       3       2      15      16       9      12       8       3
     165     179     136     180     159
     201     201     201     402     402
     787     474     435     622     818