M+/results-log/S2-5-M+/S2-10-5-3-l-M+.log
CPXPARAM_Read_DataCheck                          1
Found incumbent of value 0.000000 after 0.00 sec. (0.03 ticks)
Tried aggregator 1 time.
MIP Presolve modified 1 coefficients.
Reduced MIP has 216 rows, 1005 columns, and 5020 nonzeros.
Reduced MIP has 1005 binaries, 0 generals, 0 SOSs, and 0 indicators.
Presolve time = 0.02 sec. (1.88 ticks)
Probing time = 0.00 sec. (1.47 ticks)
Tried aggregator 1 time.
Reduced MIP has 216 rows, 1005 columns, and 5020 nonzeros.
Reduced MIP has 1005 binaries, 0 generals, 0 SOSs, and 0 indicators.
Presolve time = 0.00 sec. (2.25 ticks)
Probing time = 0.00 sec. (1.47 ticks)
Clique table members: 1723.
MIP emphasis: balance optimality and feasibility.
MIP search method: dynamic search.
Parallel mode: deterministic, using up to 4 threads.
Root relaxation solution time = 0.02 sec. (3.95 ticks)

        Nodes                                         Cuts/
   Node  Left     Objective  IInf  Best Integer    Best Bound    ItCnt     Gap

*     0+    0                            0.0000     6033.0000              --- 
      0     0     2414.9630    13        0.0000     2414.9630      393     --- 
      0     0     1438.6498   194        0.0000     Cuts: 154      732     --- 
      0     0     1270.4563   225        0.0000     Cuts: 154     1035     --- 
*     0+    0                          954.0000     1270.4563            33.17%
      0     0        cutoff            954.0000      954.0000     1390    0.00%
Elapsed time = 0.14 sec. (133.86 ticks, tree = 0.01 MB, solutions = 2)

Clique cuts applied:  388
Cover cuts applied:  6
Mixed integer rounding cuts applied:  18
Zero-half cuts applied:  5

Root node processing (before b&c):
  Real time             =    0.14 sec. (133.93 ticks)
Parallel b&c, 4 threads:
  Real time             =    0.00 sec. (0.00 ticks)
  Sync time (average)   =    0.00 sec.
  Wait time (average)   =    0.00 sec.
                          ------------
Total (root+branch&cut) =    0.14 sec. (133.93 ticks)
